benchmarks_CP/INST_36x36/45/inst36x36_45_47.dzn
S=6;
start=[|
32,	-1,	-1,	27,	-1,	-1,	25,	13,	34,	-1,	-1,	-1,	-1,	-1,	17,	26,	18,	-1,	-1,	-1,	23,	-1,	-1,	14,	-1,	-1,	5,	-1,	20,	29,	-1,	1,	-1,	24,	-1,	-1|
25,	-1,	-1,	-1,	3,	-1,	20,	31,	-1,	14,	-1,	19,	9,	-1,	33,	-1,	24,	27,	18,	12,	10,	-1,	26,	-1,	36,	-1,	-1,	6,	-1,	1,	23,	34,	-1,	-1,	-1,	-1|
-1,	-1,	-1,	-1,	36,	-1,	-1,	6,	9,	24,	27,	-1,	-1,	21,	13,	-1,	3,	15,	32,	-1,	-1,	-1,	-1,	-1,	-1,	26,	-1,	7,	8,	-1,	-1,	-1,	-1,	2,	-1,	31|
-1,	18,	-1,	6,	-1,	-1,	4,	2,	35,	32,	-1,	-1,	-1,	-1,	-1,	30,	25,	29,	-1,	33,	11,	-1,	24,	-1,	10,	15,	-1,	-1,	28,	9,	-1,	21,	26,	22,	-1,	17|
4,	29,	16,	-1,	7,	-1,	-1,	-1,	-1,	-1,	18,	-1,	6,	20,	11,	31,	23,	-1,	-1,	-1,	-1,	19,	22,	-1,	-1,	-1,	-1,	34,	-1,	24,	-1,	-1,	-1,	-1,	9,	-1|
-1,	-1,	23,	-1,	-1,	-1,	-1,	26,	22,	-1,	1,	29,	-1,	-1,	12,	-1,	-1,	-1,	-1,	-1,	-1,	-1,	-1,	16,	25,	-1,	21,	-1,	31,	27,	3,	-1,	-1,	-1,	11,	-1|
36,	2,	-1,	34,	13,	22,	18,	-1,	10,	4,	3,	1,	25,	17,	-1,	19,	5,	12,	24,	20,	-1,	14,	-1,	31,	-1,	-1,	11,	28,	-1,	-1,	-1,	-1,	32,	-1,	-1,	-1|
-1,	-1,	-1,	5,	21,	-1,	8,	-1,	-1,	33,	-1,	-1,	-1,	15,	1,	36,	-1,	-1,	-1,	34,	12,	9,	27,	25,	22,	14,	-1,	16,	3,	26,	20,	19,	-1,	-1,	30,	13|
26,	16,	-1,	-1,	-1,	-1,	-1,	-1,	-1,	-1,	-1,	7,	35,	-1,	-1,	-1,	33,	32,	-1,	30,	-1,	-1,	8,	-1,	-1,	25,	24,	-1,	-1,	-1,	-1,	-1,	-1,	-1,	29,	-1|
-1,	-1,	25,	20,	30,	-1,	15,	-1,	13,	16,	-1,	26,	-1,	2,	-1,	-1,	-1,	-1,	23,	-1,	6,	3,	-1,	19,	-1,	-1,	-1,	-1,	29,	4,	-1,	22,	-1,	-1,	12,	-1|
31,	-1,	27,	14,	32,	29,	19,	-1,	-1,	-1,	24,	-1,	30,	3,	-1,	18,	-1,	-1,	15,	-1,	-1,	26,	21,	11,	-1,	2,	-1,	12,	7,	34,	28,	-1,	5,	-1,	-1,	23|
3,	17,	7,	-1,	24,	-1,	34,	-1,	30,	-1,	-1,	-1,	-1,	-1,	20,	-1,	-1,	-1,	29,	28,	36,	2,	16,	18,	-1,	-1,	15,	13,	-1,	19,	21,	-1,	35,	25,	-1,	4|
-1,	-1,	-1,	-1,	-1,	-1,	-1,	18,	-1,	6,	8,	-1,	-1,	-1,	-1,	-1,	-1,	-1,	-1,	-1,	26,	-1,	10,	15,	-1,	-1,	-1,	-1,	1,	-1,	-1,	35,	20,	-1,	28,	-1|
7,	-1,	-1,	23,	-1,	17,	27,	-1,	24,	28,	-1,	11,	-1,	-1,	-1,	16,	30,	26,	-1,	19,	21,	-1,	36,	-1,	-1,	9,	-1,	-1,	4,	-1,	-1,	-1,	-1,	-1,	8,	3|
-1,	10,	26,	-1,	20,	-1,	13,	-1,	-1,	5,	21,	-1,	-1,	-1,	22,	-1,	15,	3,	7,	14,	-1,	-1,	1,	-1,	-1,	6,	-1,	-1,	34,	30,	-1,	-1,	-1,	-1,	-1,	2|
-1,	-1,	-1,	-1,	-1,	6,	-1,	-1,	4,	26,	-1,	-1,	-1,	-1,	14,	-1,	-1,	-1,	5,	16,	-1,	34,	3,	-1,	-1,	29,	25,	24,	10,	-1,	-1,	-1,	15,	-1,	7,	-1|
-1,	25,	-1,	-1,	35,	-1,	-1,	15,	-1,	31,	-1,	-1,	27,	-1,	32,	-1,	1,	6,	12,	-1,	-1,	-1,	-1,	-1,	26,	-1,	18,	33,	14,	-1,	10,	-1,	19,	4,	13,	-1|
-1,	-1,	-1,	-1,	-1,	-1,	-1,	19,	-1,	22,	-1,	25,	18,	-1,	-1,	13,	-1,	-1,	11,	-1,	24,	-1,	-1,	-1,	-1,	7,	-1,	23,	27,	17,	-1,	-1,	-1,	-1,	14,	21|
21,	-1,	30,	-1,	-1,	4,	-1,	32,	14,	-1,	9,	17,	19,	-1,	29,	-1,	-1,	-1,	2,	23,	-1,	-1,	-1,	8,	24,	-1,	10,	22,	-1,	-1,	1,	-1,	3,	7,	20,	-1|
-1,	-1,	33,	29,	-1,	9,	-1,	-1,	-1,	-1,	-1,	4,	5,	-1,	-1,	-1,	36,	17,	-1,	-1,	-1,	21,	-1,	-1,	14,	19,	20,	-1,	-1,	2,	-1,	8,	18,	11,	-1,	27|
-1,	-1,	-1,	31,	6,	7,	23,	-1,	25,	15,	-1,	8,	-1,	-1,	-1,	-1,	-1,	4,	22,	13,	-1,	-1,	-1,	-1,	27,	34,	1,	-1,	-1,	16,	-1,	12,	9,	5,	10,	-1|
1,	-1,	-1,	13,	-1,	16,	-1,	3,	18,	30,	5,	-1,	-1,	-1,	-1,	2,	7,	-1,	-1,	-1,	-1,	-1,	-1,	24,	12,	-1,	-1,	-1,	-1,	33,	31,	-1,	-1,	21,	-1,	-1|
23,	27,	-1,	19,	-1,	-1,	-1,	7,	-1,	-1,	26,	-1,	22,	-1,	-1,	-1,	-1,	20,	33,	36,	-1,	17,	-1,	-1,	-1,	4,	-1,	-1,	-1,	3,	-1,	2,	-1,	-1,	-1,	-1|
12,	-1,	36,	-1,	-1,	-1,	29,	34,	21,	-1,	19,	16,	1,	31,	-1,	11,	-1,	9,	35,	10,	27,	-1,	-1,	3,	-1,	-1,	-1,	5,	17,	15,	30,	-1,	-1,	-1,	-1,	26|
-1,	12,	-1,	4,	-1,	1,	-1,	-1,	-1,	2,	-1,	-1,	36,	7,	-1,	-1,	-1,	-1,	16,	-1,	17,	24,	-1,	-1,	-1,	-1,	-1,	35,	15,	-1,	-1,	-1,	10,	-1,	22,	-1|
-1,	-1,	-1,	10,	-1,	13,	22,	-1,	-1,	34,	6,	24,	-1,	-1,	-1,	28,	-1,	-1,	27,	26,	1,	-1,	11,	23,	9,	-1,	29,	25,	-1,	18,	-1,	30,	-1,	15,	-1,	8|
34,	-1,	3,	-1,	-1,	-1,	12,	-1,	26,	-1,	-1,	31,	-1,	1,	-1,	15,	-1,	21,	20,	22,	-1,	-1,	-1,	30,	5,	-1,	-1,	-1,	-1,	-1,	13,	-1,	-1,	14,	-1,	25|
-1,	-1,	-1,	-1,	29,	18,	-1,	-1,	3,	1,	-1,	33,	4,	-1,	-1,	-1,	-1,	-1,	-1,	35,	7,	36,	-1,	-1,	-1,	23,	-1,	11,	-1,	12,	-1,	26,	21,	34,	32,	-1|
22,	-1,	-1,	11,	-1,	30,	-1,	28,	-1,	17,	13,	15,	-1,	9,	-1,	23,	-1,	18,	10,	-1,	3,	29,	19,	-1,	-1,	1,	-1,	-1,	-1,	-1,	5,	24,	27,	-1,	31,	12|
-1,	-1,	-1,	-1,	-1,	24,	-1,	-1,	23,	21,	-1,	18,	-1,	-1,	-1,	-1,	-1,	33,	-1,	-1,	-1,	5,	-1,	6,	-1,	-1,	-1,	-1,	-1,	20,	-1,	-1,	1,	16,	-1,	-1|
-1,	-1,	6,	-1,	-1,	-1,	-1,	-1,	2,	19,	30,	-1,	15,	-1,	-1,	-1,	4,	-1,	28,	-1,	8,	10,	31,	-1,	-1,	-1,	33,	27,	-1,	-1,	29,	-1,	-1,	-1,	18,	-1|
-1,	-1,	-1,	-1,	-1,	20,	26,	11,	6,	29,	33,	-1,	17,	36,	24,	-1,	-1,	-1,	-1,	3,	2,	32,	-1,	9,	-1,	8,	23,	10,	18,	-1,	-1,	-1,	-1,	-1,	-1,	1|
29,	-1,	2,	8,	-1,	-1,	3,	36,	7,	10,	25,	-1,	-1,	-1,	-1,	-1,	16,	-1,	4,	-1,	14,	-1,	17,	-1,	-1,	-1,	-1,	-1,	24,	22,	-1,	-1,	-1,	30,	-1,	-1|
-1,	-1,	-1,	32,	-1,	-1,	-1,	-1,	27,	-1,	20,	-1,	-1,	-1,	-1,	-1,	31,	28,	34,	11,	29,	16,	23,	-1,	15,	-1,	-1,	-1,	26,	-1,	-1,	-1,	2,	-1,	-1,	10|
16,	24,	10,	-1,	31,	14,	28,	-1,	-1,	35,	-1,	-1,	-1,	-1,	-1,	-1,	-1,	-1,	-1,	-1,	-1,	13,	33,	-1,	7,	-1,	36,	1,	-1,	11,	-1,	32,	-1,	-1,	-1,	22|
-1,	-1,	28,	-1,	-1,	-1,	31,	-1,	32,	-1,	-1,	21,	20,	10,	-1,	8,	-1,	11,	6,	24,	-1,	-1,	5,	1,	2,	-1,	19,	29,	13,	-1,	9,	-1,	-1,	-1,	15,	33|];
